p cnf 165 424
a 29 32 42 50 2 4 10 12 81 90 19 21 28 129 136 154 1 9 18 27 0
d 73 10 12 0
d 116 18 27 0
d 88 1 9 0
d 123 28 129 0
d 3 2 0
d 5 4 0
d 6 2 4 0
d 7 1 2 4 0
d 8 1 2 4 0
d 11 10 0
d 13 12 0
d 14 10 12 0
d 15 9 10 12 0
d 16 9 10 12 0
d 17 1 2 4 9 10 12 0
d 20 19 0
d 22 21 0
d 23 19 21 0
d 24 18 19 21 0
d 25 18 19 21 0
d 26 1 2 4 9 10 12 18 19 21 0
d 30 29 0
d 31 28 29 0
d 33 32 0
d 34 28 29 32 0
d 35 27 28 29 32 0
d 36 27 28 29 32 0
d 37 1 2 4 9 10 12 18 19 21 27 28 29 32 0
d 38 29 0
d 39 29 32 0
d 40 29 32 0
d 41 29 32 0
d 43 42 29 0
d 44 42 29 32 0
d 45 42 29 32 0
d 46 29 32 42 0
d 47 29 32 0
d 48 42 0
d 49 29 32 42 0
d 51 29 32 42 50 0
d 52 29 32 42 50 0
d 53 29 32 42 50 0
d 54 50 0
d 55 42 50 0
d 56 2 29 0
d 57 2 29 32 0
d 58 42 50 2 29 32 0
d 59 42 50 2 29 32 0
d 60 29 32 42 50 2 0
d 61 2 4 0
d 62 29 32 42 50 0
d 63 2 4 29 32 42 50 0
d 64 2 4 29 32 42 50 0
d 65 29 32 42 50 2 4 0
d 66 10 29 0
d 67 10 29 32 0
d 68 42 50 2 0
d 69 42 50 2 4 0
d 70 10 29 32 42 50 2 4 0
d 71 10 29 32 42 50 2 4 0
d 72 29 32 42 50 2 4 10 0
d 74 2 4 10 12 0
d 75 29 32 42 50 2 4 10 12 0
d 76 2 4 10 0
d 77 2 4 10 12 0
d 78 29 32 42 50 2 4 10 12 0
d 79 29 32 42 50 2 4 10 12 0
d 80 29 32 42 50 2 4 10 12 0
d 82 81 29 0
d 83 81 29 32 0
d 84 10 12 81 29 32 0
d 85 42 50 2 4 10 12 81 29 32 0
d 86 42 50 2 4 10 12 81 29 32 0
d 87 29 32 42 50 2 4 10 12 81 0
d 89 81 0
d 91 81 90 0
d 92 81 90 29 32 42 50 0
d 93 1 9 81 90 29 32 42 50 0
d 94 2 4 10 12 0
d 95 2 4 10 12 81 90 29 32 42 50 0
d 96 1 9 81 90 29 32 42 50 2 4 10 12 0
d 97 29 32 42 50 2 4 10 12 81 1 9 90 0
d 98 10 12 81 0
d 99 90 0
d 100 10 12 81 90 0
d 101 19 29 0
d 102 19 29 32 0
d 103 19 29 32 42 50 2 4 0
d 104 10 12 81 90 19 29 32 42 50 2 4 0
d 105 10 12 81 90 19 29 32 42 50 2 4 0
d 106 29 32 42 50 2 4 10 12 81 1 9 90 19 0
d 107 81 90 0
d 108 81 90 19 0
d 109 81 90 19 21 0
d 110 29 32 42 50 1 9 0
d 111 81 90 19 21 29 32 42 50 1 9 0
d 112 29 32 42 50 2 4 10 12 0
d 113 81 90 19 21 29 32 42 50 2 4 10 12 0
d 114 81 90 19 21 29 32 42 50 1 9 2 4 10 12 0
d 115 29 32 42 50 2 4 10 12 81 1 9 90 19 21 0
d 117 42 50 2 4 10 12 81 90 0
d 118 18 27 42 50 2 4 10 12 81 90 0
d 119 19 21 28 29 32 0
d 120 19 21 28 29 32 42 50 2 4 10 12 81 90 0
d 121 18 27 42 50 2 4 10 12 81 90 19 21 28 29 32 0
d 122 29 32 42 50 2 4 10 12 81 1 9 90 19 21 18 27 28 0
d 124 28 129 29 32 42 50 0
d 125 81 90 19 21 0
d 126 1 9 81 90 19 21 0
d 127 28 129 29 32 42 50 1 9 81 90 19 21 0
d 128 28 0
d 130 28 129 0
d 131 28 129 29 32 42 50 0
d 132 2 4 10 12 81 90 19 21 0
d 133 28 129 29 32 42 50 2 4 10 12 81 90 19 21 0
d 134 28 129 29 32 42 50 1 9 81 90 19 21 2 4 10 12 0
d 135 29 32 42 50 2 4 10 12 81 1 9 90 19 21 18 27 28 129 0
d 137 136 29 0
d 138 136 29 32 0
d 139 136 29 32 42 50 2 4 0
d 140 28 129 0
d 141 28 129 0
d 142 19 21 28 129 0
d 143 10 12 81 90 19 21 28 129 0
d 144 136 29 32 42 50 2 4 10 12 81 90 19 21 28 129 0
d 145 19 21 28 0
d 146 129 0
d 147 19 21 28 129 0
d 148 10 12 81 90 19 21 28 129 0
d 149 136 29 32 42 50 2 4 10 12 81 90 19 21 28 129 0
d 150 136 29 32 42 50 2 4 10 12 81 90 19 21 28 129 0
d 151 29 32 42 50 2 4 10 12 81 1 9 90 19 21 18 27 28 129 136 0
d 152 136 0
d 153 28 129 136 0
d 155 28 129 136 154 0
d 156 81 90 19 21 28 129 136 154 0
d 157 29 32 42 50 1 9 81 90 19 21 28 129 136 154 0
d 158 28 129 0
d 159 28 129 136 0
d 160 28 129 136 154 0
d 161 81 90 19 21 28 129 136 154 0
d 162 29 32 42 50 2 4 10 12 81 90 19 21 28 129 136 154 0
d 163 29 32 42 50 1 9 81 90 19 21 28 129 136 154 2 4 10 12 0
d 164 29 32 42 50 2 4 10 12 81 1 9 90 19 21 18 27 28 129 136 154 0
d 165 1 2 4 9 10 12 18 19 21 27 28 29 32 42 50 81 90 129 136 154 0
3 2 0
-3 -2 0
5 4 0
-5 -4 0
-6 3 0
-6 5 0
6 -3 -5 0
7 -1 -6 0
7 1 6 0
-7 -1 6 0
-7 1 -6 0
8 7 0
-8 -7 0
11 10 0
-11 -10 0
13 12 0
-13 -12 0
-14 11 0
-14 13 0
14 -11 -13 0
15 -9 -14 0
15 9 14 0
-15 -9 14 0
-15 9 -14 0
16 15 0
-16 -15 0
17 -8 0
17 -16 0
-17 8 16 0
20 19 0
-20 -19 0
22 21 0
-22 -21 0
-23 20 0
-23 22 0
23 -20 -22 0
24 -18 -23 0
24 18 23 0
-24 -18 23 0
-24 18 -23 0
25 24 0
-25 -24 0
26 -17 0
26 -25 0
-26 17 25 0
30 29 0
-30 -29 0
-31 28 0
-31 30 0
31 -28 -30 0
33 32 0
-33 -32 0
-34 31 0
-34 33 0
34 -31 -33 0
35 -27 -34 0
35 27 34 0
-35 -27 34 0
-35 27 -34 0
36 35 0
-36 -35 0
37 -26 0
37 -36 0
-37 26 36 0
38 -29 -29 0
38 29 29 0
-38 -29 29 0
-38 29 -29 0
-39 30 0
-39 32 0
39 -30 -32 0
40 -39 -39 0
40 39 39 0
-40 -39 39 0
-40 39 -39 0
-41 38 0
-41 40 0
41 -38 -40 0
-43 42 0
-43 30 0
43 -42 -30 0
-44 43 0
-44 33 0
44 -43 -33 0
45 -44 -44 0
45 44 44 0
-45 -44 44 0
-45 44 -44 0
-46 41 0
-46 45 0
46 -41 -45 0
-47 30 0
-47 33 0
47 -30 -33 0
48 42 0
-48 -42 0
-49 47 0
-49 48 0
49 -47 -48 0
-51 49 0
-51 50 0
51 -49 -50 0
52 -51 -51 0
52 51 51 0
-52 -51 51 0
-52 51 -51 0
-53 46 0
-53 52 0
53 -46 -52 0
54 50 0
-54 -50 0
-55 48 0
-55 54 0
55 -48 -54 0
-56 2 0
-56 30 0
56 -2 -30 0
-57 56 0
-57 33 0
57 -56 -33 0
-58 55 0
-58 57 0
58 -55 -57 0
59 -58 -58 0
59 58 58 0
-59 -58 58 0
-59 58 -58 0
-60 53 0
-60 59 0
60 -53 -59 0
-61 3 0
-61 4 0
61 -3 -4 0
-62 49 0
-62 54 0
62 -49 -54 0
-63 61 0
-63 62 0
63 -61 -62 0
64 -63 -63 0
64 63 63 0
-64 -63 63 0
-64 63 -63 0
-65 60 0
-65 64 0
65 -60 -64 0
-66 10 0
-66 30 0
66 -10 -30 0
-67 66 0
-67 33 0
67 -66 -33 0
-68 55 0
-68 3 0
68 -55 -3 0
-69 68 0
-69 5 0
69 -68 -5 0
-70 67 0
-70 69 0
70 -67 -69 0
71 -70 -70 0
71 70 70 0
-71 -70 70 0
-71 70 -70 0
-72 65 0
-72 71 0
72 -65 -71 0
-74 6 0
-74 73 0
74 -6 -73 0
-75 62 0
-75 74 0
75 -62 -74 0
-76 6 0
-76 11 0
76 -6 -11 0
-77 76 0
-77 12 0
77 -76 -12 0
-78 62 0
-78 77 0
78 -62 -77 0
79 -75 -78 0
79 75 78 0
-79 -75 78 0
-79 75 -78 0
-80 72 0
-80 79 0
80 -72 -79 0
-82 81 0
-82 30 0
82 -81 -30 0
-83 82 0
-83 33 0
83 -82 -33 0
-84 14 0
-84 83 0
84 -14 -83 0
-85 69 0
-85 84 0
85 -69 -84 0
86 -85 -85 0
86 85 85 0
-86 -85 85 0
-86 85 -85 0
-87 80 0
-87 86 0
87 -80 -86 0
89 81 0
-89 -81 0
-91 89 0
-91 90 0
91 -89 -90 0
-92 91 0
-92 62 0
92 -91 -62 0
-93 88 0
-93 92 0
93 -88 -92 0
-94 76 0
-94 13 0
94 -76 -13 0
-95 94 0
-95 92 0
95 -94 -92 0
96 -93 -95 0
96 93 95 0
-96 -93 95 0
-96 93 -95 0
-97 87 0
-97 96 0
97 -87 -96 0
-98 14 0
-98 89 0
98 -14 -89 0
99 90 0
-99 -90 0
-100 98 0
-100 99 0
100 -98 -99 0
-101 19 0
-101 30 0
101 -19 -30 0
-102 101 0
-102 33 0
102 -101 -33 0
-103 102 0
-103 69 0
103 -102 -69 0
-104 100 0
-104 103 0
104 -100 -103 0
105 -104 -104 0
105 104 104 0
-105 -104 104 0
-105 104 -104 0
-106 97 0
-106 105 0
106 -97 -105 0
-107 89 0
-107 99 0
107 -89 -99 0
-108 107 0
-108 20 0
108 -107 -20 0
-109 108 0
-109 21 0
109 -108 -21 0
-110 62 0
-110 88 0
110 -62 -88 0
-111 109 0
-111 110 0
111 -109 -110 0
-112 62 0
-112 94 0
112 -62 -94 0
-113 109 0
-113 112 0
113 -109 -112 0
114 -111 -113 0
114 111 113 0
-114 -111 113 0
-114 111 -113 0
-115 106 0
-115 114 0
115 -106 -114 0
-117 69 0
-117 100 0
117 -69 -100 0
-118 116 0
-118 117 0
118 -116 -117 0
-119 23 0
-119 34 0
119 -23 -34 0
-120 119 0
-120 117 0
120 -119 -117 0
121 -118 -120 0
121 118 120 0
-121 -118 120 0
-121 118 -120 0
-122 115 0
-122 121 0
122 -115 -121 0
-124 123 0
-124 62 0
124 -123 -62 0
-125 108 0
-125 22 0
125 -108 -22 0
-126 88 0
-126 125 0
126 -88 -125 0
-127 124 0
-127 126 0
127 -124 -126 0
128 28 0
-128 -28 0
-130 128 0
-130 129 0
130 -128 -129 0
-131 130 0
-131 62 0
131 -130 -62 0
-132 94 0
-132 125 0
132 -94 -125 0
-133 131 0
-133 132 0
133 -131 -132 0
134 -127 -133 0
134 127 133 0
-134 -127 133 0
-134 127 -133 0
-135 122 0
-135 134 0
135 -122 -134 0
-137 136 0
-137 30 0
137 -136 -30 0
-138 137 0
-138 33 0
138 -137 -33 0
-139 138 0
-139 69 0
139 -138 -69 0
140 -28 0
140 -129 0
-140 28 129 0
141 140 0
-141 -140 0
-142 23 0
-142 141 0
142 -23 -141 0
-143 100 0
-143 142 0
143 -100 -142 0
-144 139 0
-144 143 0
144 -139 -143 0
-145 23 0
-145 128 0
145 -23 -128 0
146 129 0
-146 -129 0
-147 145 0
-147 146 0
147 -145 -146 0
-148 100 0
-148 147 0
148 -100 -147 0
-149 139 0
-149 148 0
149 -139 -148 0
150 -144 -149 0
150 144 149 0
-150 -144 149 0
-150 144 -149 0
-151 135 0
-151 150 0
151 -135 -150 0
152 136 0
-152 -136 0
-153 141 0
-153 152 0
153 -141 -152 0
-155 153 0
-155 154 0
155 -153 -154 0
-156 125 0
-156 155 0
156 -125 -155 0
-157 110 0
-157 156 0
157 -110 -156 0
-158 128 0
-158 146 0
158 -128 -146 0
-159 158 0
-159 152 0
159 -158 -152 0
-160 159 0
-160 154 0
160 -159 -154 0
-161 125 0
-161 160 0
161 -125 -160 0
-162 112 0
-162 161 0
162 -112 -161 0
163 -157 -162 0
163 157 162 0
-163 -157 162 0
-163 157 -162 0
-164 151 0
-164 163 0
164 -151 -163 0
165 -37 0
165 -164 0
-165 37 164 0
165 0
